30	100	100	100
39	98	66
47	97	11
80	49	20
81	77	88
91	94	62
64	46	41
68	49	31
80	77	87
87	47	74
29	81	27
16	4	91
72	48	48
49	8	14
79	73	47
78	12	64
10	53	32
47	68	5
81	19	2
40	34	80
13	22	70
19	93	84
91	99	63
55	42	32
49	81	85
26	5	20
90	73	24
10	73	23
8	95	1
19	24	21
70	67	90
